JulietBench/Juliet_Based_Patch_Bench/FFmpeg/CWE-189-Numeric-Errors/CVE_2013_7013_821a5938d100458f4d09d634041b05c860554ce0/Resultg2m_init_buffers_Snippet_patch2EQ.smt2
; benchmark generated from python API
(set-info :status unknown)
(declare-fun R () (_ BitVec 32))
(declare-fun rdi () (_ BitVec 64))
(assert
 (let (($x47 (= (_ bv48 32) R)))
 (let ((?x6 ((_ extract 31 0) rdi)))
 (let ((?x29 (bvadd (bvadd (_ bv15 32) (concat ((_ extract 30 0) rdi) (_ bv0 1))) ?x6)))
 (let ((?x27 ((_ extract 31 4) ?x29)))
 (let ((?x32 (concat ?x27 (_ bv0 4))))
 (let (($x20 (= R ?x32)))
 (and $x20 $x47))))))))
(check-sat)
